Total weight: 1217.557258717131
Route 1: 0 28 76 12 21 72 73 95 98 100 2 57 87 92 59 99 94 58 40 26 53 13 97 96 6 89 50 77 68 80 24 54 0 
Route 2: 0 69 63 11 47 19 62 7 82 83 8 45 84 61 85 16 14 42 15 41 22 74 4 3 33 10 60 93 37 43 91 17 0 
Route 3: 0 18 5 86 44 38 67 23 29 78 34 81 79 55 25 39 56 75 1 20 32 0 
Route 4: 0 27 52 88 31 70 30 51 9 71 65 35 66 90 64 49 36 46 48 0 
